/*********************************************
 * OPL 22.1.1.0 Model
 * Author: filippostruffi
 * Creation Date: Feb 6, 2025 at 2:54:21 PM
 *********************************************/
 
silk_usage =[0.125,0,0,0,0,0,0,0];
poly_usage =[0,0.08,0.05,0.03,0,0,0,0];
cott_usage =[0,0,0.05,0.07,0,0,0,0];
max_silk=1000;
max_poly=2000;
max_cott=1250;
demand = [7000,14000,16000,8500];
profit=[3.45,2.32,2.81,3.25,2.45,1.55,1.81,2.61];